Set parameter Username
Academic license - for non-commercial use only - expires 2023-12-01
Set parameter TimeLimit to value 600
Set parameter MIPGap to value 1e-06
Set parameter Threads to value 1
Warning: model has pending changes.
Derived model does not contain these changes.
Gurobi Optimizer version 9.5.2 build v9.5.2rc0 (linux64)
Thread count: 4 physical cores, 8 logical processors, using up to 1 threads
Optimize a model with 0 rows, 0 columns and 0 nonzeros
Model fingerprint: 0xf9715da1
Coefficient statistics:
  Matrix range     [0e+00, 0e+00]
  Objective range  [0e+00, 0e+00]
  Bounds range     [0e+00, 0e+00]
  RHS range        [0e+00, 0e+00]
Presolve time: 0.00s
Presolve: All rows and columns removed
Iteration    Objective       Primal Inf.    Dual Inf.      Time
       0    0.0000000e+00   0.000000e+00   0.000000e+00      0s

Solved in 0 iterations and 0.00 seconds (0.00 work units)
Optimal objective  0.000000000e+00
Set parameter TimeLimit to value 600
Set parameter MIPGap to value 1e-06
Set parameter Threads to value 1
Warning: model has pending changes.
Derived model does not contain these changes.
Gurobi Optimizer version 9.5.2 build v9.5.2rc0 (linux64)
Thread count: 4 physical cores, 8 logical processors, using up to 1 threads
Optimize a model with 0 rows, 0 columns and 0 nonzeros
Model fingerprint: 0xf9715da1
Coefficient statistics:
  Matrix range     [0e+00, 0e+00]
  Objective range  [0e+00, 0e+00]
  Bounds range     [0e+00, 0e+00]
  RHS range        [0e+00, 0e+00]
Presolve time: 0.00s
Presolve: All rows and columns removed
Iteration    Objective       Primal Inf.    Dual Inf.      Time
       0    0.0000000e+00   0.000000e+00   0.000000e+00      0s

Solved in 0 iterations and 0.00 seconds (0.00 work units)
Optimal objective  0.000000000e+00
Set parameter TimeLimit to value 600
Set parameter MIPGap to value 1e-06
Set parameter Threads to value 1
Warning: model has pending changes.
Derived model does not contain these changes.
Gurobi Optimizer version 9.5.2 build v9.5.2rc0 (linux64)
Thread count: 4 physical cores, 8 logical processors, using up to 1 threads
Optimize a model with 0 rows, 0 columns and 0 nonzeros
Model fingerprint: 0xf9715da1
Coefficient statistics:
  Matrix range     [0e+00, 0e+00]
  Objective range  [0e+00, 0e+00]
  Bounds range     [0e+00, 0e+00]
  RHS range        [0e+00, 0e+00]
Presolve time: 0.00s
Presolve: All rows and columns removed
Iteration    Objective       Primal Inf.    Dual Inf.      Time
       0    0.0000000e+00   0.000000e+00   0.000000e+00      0s

Solved in 0 iterations and 0.00 seconds (0.00 work units)
Optimal objective  0.000000000e+00
Set parameter TimeLimit to value 600
Set parameter MIPGap to value 1e-06
Set parameter Threads to value 1
Warning: model has pending changes.
Derived model does not contain these changes.
Gurobi Optimizer version 9.5.2 build v9.5.2rc0 (linux64)
Thread count: 4 physical cores, 8 logical processors, using up to 1 threads
Optimize a model with 0 rows, 0 columns and 0 nonzeros
Model fingerprint: 0xf9715da1
Coefficient statistics:
  Matrix range     [0e+00, 0e+00]
  Objective range  [0e+00, 0e+00]
  Bounds range     [0e+00, 0e+00]
  RHS range        [0e+00, 0e+00]
Presolve time: 0.00s
Presolve: All rows and columns removed
Iteration    Objective       Primal Inf.    Dual Inf.      Time
       0    0.0000000e+00   0.000000e+00   0.000000e+00      0s

Solved in 0 iterations and 0.00 seconds (0.00 work units)
Optimal objective  0.000000000e+00
Set parameter TimeLimit to value 600
Set parameter MIPGap to value 1e-06
Set parameter Threads to value 1
Warning: model has pending changes.
Derived model does not contain these changes.
Gurobi Optimizer version 9.5.2 build v9.5.2rc0 (linux64)
Thread count: 4 physical cores, 8 logical processors, using up to 1 threads
Optimize a model with 0 rows, 0 columns and 0 nonzeros
Model fingerprint: 0xf9715da1
Coefficient statistics:
  Matrix range     [0e+00, 0e+00]
  Objective range  [0e+00, 0e+00]
  Bounds range     [0e+00, 0e+00]
  RHS range        [0e+00, 0e+00]
Presolve time: 0.00s
Presolve: All rows and columns removed
Iteration    Objective       Primal Inf.    Dual Inf.      Time
       0    0.0000000e+00   0.000000e+00   0.000000e+00      0s

Solved in 0 iterations and 0.00 seconds (0.00 work units)
Optimal objective  0.000000000e+00
Set parameter TimeLimit to value 600
Set parameter MIPGap to value 1e-06
Set parameter Threads to value 1
Warning: model has pending changes.
Derived model does not contain these changes.
Gurobi Optimizer version 9.5.2 build v9.5.2rc0 (linux64)
Thread count: 4 physical cores, 8 logical processors, using up to 1 threads
Optimize a model with 0 rows, 0 columns and 0 nonzeros
Model fingerprint: 0xf9715da1
Coefficient statistics:
  Matrix range     [0e+00, 0e+00]
  Objective range  [0e+00, 0e+00]
  Bounds range     [0e+00, 0e+00]
  RHS range        [0e+00, 0e+00]
Presolve time: 0.00s
Presolve: All rows and columns removed
Iteration    Objective       Primal Inf.    Dual Inf.      Time
       0    0.0000000e+00   0.000000e+00   0.000000e+00      0s

Solved in 0 iterations and 0.00 seconds (0.00 work units)
Optimal objective  0.000000000e+00
Set parameter TimeLimit to value 600
Set parameter MIPGap to value 1e-06
Set parameter Threads to value 1
Warning: model has pending changes.
Derived model does not contain these changes.
Gurobi Optimizer version 9.5.2 build v9.5.2rc0 (linux64)
Thread count: 4 physical cores, 8 logical processors, using up to 1 threads
Optimize a model with 0 rows, 0 columns and 0 nonzeros
Model fingerprint: 0xf9715da1
Coefficient statistics:
  Matrix range     [0e+00, 0e+00]
  Objective range  [0e+00, 0e+00]
  Bounds range     [0e+00, 0e+00]
  RHS range        [0e+00, 0e+00]
Presolve time: 0.00s
Presolve: All rows and columns removed
Iteration    Objective       Primal Inf.    Dual Inf.      Time
       0    0.0000000e+00   0.000000e+00   0.000000e+00      0s

Solved in 0 iterations and 0.00 seconds (0.00 work units)
Optimal objective  0.000000000e+00
Set parameter TimeLimit to value 600
Set parameter MIPGap to value 1e-06
Set parameter Threads to value 1
Warning: model has pending changes.
Derived model does not contain these changes.
Gurobi Optimizer version 9.5.2 build v9.5.2rc0 (linux64)
Thread count: 4 physical cores, 8 logical processors, using up to 1 threads
Optimize a model with 0 rows, 0 columns and 0 nonzeros
Model fingerprint: 0xf9715da1
Coefficient statistics:
  Matrix range     [0e+00, 0e+00]
  Objective range  [0e+00, 0e+00]
  Bounds range     [0e+00, 0e+00]
  RHS range        [0e+00, 0e+00]
Presolve time: 0.00s
Presolve: All rows and columns removed
Iteration    Objective       Primal Inf.    Dual Inf.      Time
       0    0.0000000e+00   0.000000e+00   0.000000e+00      0s

Solved in 0 iterations and 0.00 seconds (0.00 work units)
Optimal objective  0.000000000e+00
Set parameter TimeLimit to value 600
Set parameter MIPGap to value 1e-06
Set parameter Threads to value 1
Warning: model has pending changes.
Derived model does not contain these changes.
Gurobi Optimizer version 9.5.2 build v9.5.2rc0 (linux64)
Thread count: 4 physical cores, 8 logical processors, using up to 1 threads
Optimize a model with 0 rows, 0 columns and 0 nonzeros
Model fingerprint: 0xf9715da1
Coefficient statistics:
  Matrix range     [0e+00, 0e+00]
  Objective range  [0e+00, 0e+00]
  Bounds range     [0e+00, 0e+00]
  RHS range        [0e+00, 0e+00]
Presolve time: 0.00s
Presolve: All rows and columns removed
Iteration    Objective       Primal Inf.    Dual Inf.      Time
       0    0.0000000e+00   0.000000e+00   0.000000e+00      0s

Solved in 0 iterations and 0.00 seconds (0.00 work units)
Optimal objective  0.000000000e+00
Set parameter TimeLimit to value 600
Set parameter MIPGap to value 1e-06
Set parameter Threads to value 1
Warning: model has pending changes.
Derived model does not contain these changes.
Gurobi Optimizer version 9.5.2 build v9.5.2rc0 (linux64)
Thread count: 4 physical cores, 8 logical processors, using up to 1 threads
Optimize a model with 0 rows, 0 columns and 0 nonzeros
Model fingerprint: 0xf9715da1
Coefficient statistics:
  Matrix range     [0e+00, 0e+00]
  Objective range  [0e+00, 0e+00]
  Bounds range     [0e+00, 0e+00]
  RHS range        [0e+00, 0e+00]
Presolve time: 0.00s
Presolve: All rows and columns removed
Iteration    Objective       Primal Inf.    Dual Inf.      Time
       0    0.0000000e+00   0.000000e+00   0.000000e+00      0s

Solved in 0 iterations and 0.00 seconds (0.00 work units)
Optimal objective  0.000000000e+00
Set parameter TimeLimit to value 600
Set parameter MIPGap to value 1e-06
Set parameter Threads to value 1
Warning: model has pending changes.
Derived model does not contain these changes.
Gurobi Optimizer version 9.5.2 build v9.5.2rc0 (linux64)
Thread count: 4 physical cores, 8 logical processors, using up to 1 threads
Optimize a model with 0 rows, 0 columns and 0 nonzeros
Model fingerprint: 0xf9715da1
Coefficient statistics:
  Matrix range     [0e+00, 0e+00]
  Objective range  [0e+00, 0e+00]
  Bounds range     [0e+00, 0e+00]
  RHS range        [0e+00, 0e+00]
Presolve time: 0.00s
Presolve: All rows and columns removed
Iteration    Objective       Primal Inf.    Dual Inf.      Time
       0    0.0000000e+00   0.000000e+00   0.000000e+00      0s

Solved in 0 iterations and 0.00 seconds (0.00 work units)
Optimal objective  0.000000000e+00
Set parameter TimeLimit to value 600
Set parameter MIPGap to value 1e-06
Set parameter Threads to value 1
Warning: model has pending changes.
Derived model does not contain these changes.
Gurobi Optimizer version 9.5.2 build v9.5.2rc0 (linux64)
Thread count: 4 physical cores, 8 logical processors, using up to 1 threads
Optimize a model with 0 rows, 0 columns and 0 nonzeros
Model fingerprint: 0xf9715da1
Coefficient statistics:
  Matrix range     [0e+00, 0e+00]
  Objective range  [0e+00, 0e+00]
  Bounds range     [0e+00, 0e+00]
  RHS range        [0e+00, 0e+00]
Presolve time: 0.00s
Presolve: All rows and columns removed
Iteration    Objective       Primal Inf.    Dual Inf.      Time
       0    0.0000000e+00   0.000000e+00   0.000000e+00      0s

Solved in 0 iterations and 0.00 seconds (0.00 work units)
Optimal objective  0.000000000e+00
Set parameter TimeLimit to value 600
Set parameter MIPGap to value 1e-06
Set parameter Threads to value 1
Warning: model has pending changes.
Derived model does not contain these changes.
Gurobi Optimizer version 9.5.2 build v9.5.2rc0 (linux64)
Thread count: 4 physical cores, 8 logical processors, using up to 1 threads
Optimize a model with 0 rows, 0 columns and 0 nonzeros
Model fingerprint: 0xf9715da1
Coefficient statistics:
  Matrix range     [0e+00, 0e+00]
  Objective range  [0e+00, 0e+00]
  Bounds range     [0e+00, 0e+00]
  RHS range        [0e+00, 0e+00]
Presolve time: 0.00s
Presolve: All rows and columns removed
Iteration    Objective       Primal Inf.    Dual Inf.      Time
       0    0.0000000e+00   0.000000e+00   0.000000e+00      0s

Solved in 0 iterations and 0.00 seconds (0.00 work units)
Optimal objective  0.000000000e+00
Set parameter TimeLimit to value 600
Set parameter MIPGap to value 1e-06
Set parameter Threads to value 1
Warning: model has pending changes.
Derived model does not contain these changes.
Gurobi Optimizer version 9.5.2 build v9.5.2rc0 (linux64)
Thread count: 4 physical cores, 8 logical processors, using up to 1 threads
Optimize a model with 0 rows, 0 columns and 0 nonzeros
Model fingerprint: 0xf9715da1
Coefficient statistics:
  Matrix range     [0e+00, 0e+00]
  Objective range  [0e+00, 0e+00]
  Bounds range     [0e+00, 0e+00]
  RHS range        [0e+00, 0e+00]
Presolve time: 0.00s
Presolve: All rows and columns removed
Iteration    Objective       Primal Inf.    Dual Inf.      Time
       0    0.0000000e+00   0.000000e+00   0.000000e+00      0s

Solved in 0 iterations and 0.00 seconds (0.00 work units)
Optimal objective  0.000000000e+00
Set parameter TimeLimit to value 600
Set parameter MIPGap to value 1e-06
Set parameter Threads to value 1
Warning: model has pending changes.
Derived model does not contain these changes.
Gurobi Optimizer version 9.5.2 build v9.5.2rc0 (linux64)
Thread count: 4 physical cores, 8 logical processors, using up to 1 threads
Optimize a model with 0 rows, 0 columns and 0 nonzeros
Model fingerprint: 0xf9715da1
Coefficient statistics:
  Matrix range     [0e+00, 0e+00]
  Objective range  [0e+00, 0e+00]
  Bounds range     [0e+00, 0e+00]
  RHS range        [0e+00, 0e+00]
Presolve time: 0.00s
Presolve: All rows and columns removed
Iteration    Objective       Primal Inf.    Dual Inf.      Time
       0    0.0000000e+00   0.000000e+00   0.000000e+00      0s

Solved in 0 iterations and 0.00 seconds (0.00 work units)
Optimal objective  0.000000000e+00
Set parameter TimeLimit to value 600
Set parameter MIPGap to value 1e-06
Set parameter Threads to value 1
Warning: model has pending changes.
Derived model does not contain these changes.
Gurobi Optimizer version 9.5.2 build v9.5.2rc0 (linux64)
Thread count: 4 physical cores, 8 logical processors, using up to 1 threads
Optimize a model with 0 rows, 0 columns and 0 nonzeros
Model fingerprint: 0xf9715da1
Coefficient statistics:
  Matrix range     [0e+00, 0e+00]
  Objective range  [0e+00, 0e+00]
  Bounds range     [0e+00, 0e+00]
  RHS range        [0e+00, 0e+00]
Presolve time: 0.00s
Presolve: All rows and columns removed
Iteration    Objective       Primal Inf.    Dual Inf.      Time
       0    0.0000000e+00   0.000000e+00   0.000000e+00      0s

Solved in 0 iterations and 0.00 seconds (0.00 work units)
Optimal objective  0.000000000e+00
Set parameter TimeLimit to value 600
Set parameter MIPGap to value 1e-06
Set parameter Threads to value 1
Warning: model has pending changes.
Derived model does not contain these changes.
Gurobi Optimizer version 9.5.2 build v9.5.2rc0 (linux64)
Thread count: 4 physical cores, 8 logical processors, using up to 1 threads
Optimize a model with 0 rows, 0 columns and 0 nonzeros
Model fingerprint: 0xf9715da1
Coefficient statistics:
  Matrix range     [0e+00, 0e+00]
  Objective range  [0e+00, 0e+00]
  Bounds range     [0e+00, 0e+00]
  RHS range        [0e+00, 0e+00]
Presolve time: 0.00s
Presolve: All rows and columns removed
Iteration    Objective       Primal Inf.    Dual Inf.      Time
       0    0.0000000e+00   0.000000e+00   0.000000e+00      0s

Solved in 0 iterations and 0.00 seconds (0.00 work units)
Optimal objective  0.000000000e+00
Set parameter TimeLimit to value 600
Set parameter MIPGap to value 1e-06
Set parameter Threads to value 1
Warning: model has pending changes.
Derived model does not contain these changes.
Gurobi Optimizer version 9.5.2 build v9.5.2rc0 (linux64)
Thread count: 4 physical cores, 8 logical processors, using up to 1 threads
Optimize a model with 0 rows, 0 columns and 0 nonzeros
Model fingerprint: 0xf9715da1
Coefficient statistics:
  Matrix range     [0e+00, 0e+00]
  Objective range  [0e+00, 0e+00]
  Bounds range     [0e+00, 0e+00]
  RHS range        [0e+00, 0e+00]
Presolve time: 0.00s
Presolve: All rows and columns removed
Iteration    Objective       Primal Inf.    Dual Inf.      Time
       0    0.0000000e+00   0.000000e+00   0.000000e+00      0s

Solved in 0 iterations and 0.00 seconds (0.00 work units)
Optimal objective  0.000000000e+00
Set parameter TimeLimit to value 600
Set parameter MIPGap to value 1e-06
Set parameter Threads to value 1
Warning: model has pending changes.
Derived model does not contain these changes.
Gurobi Optimizer version 9.5.2 build v9.5.2rc0 (linux64)
Thread count: 4 physical cores, 8 logical processors, using up to 1 threads
Optimize a model with 0 rows, 0 columns and 0 nonzeros
Model fingerprint: 0xf9715da1
Coefficient statistics:
  Matrix range     [0e+00, 0e+00]
  Objective range  [0e+00, 0e+00]
  Bounds range     [0e+00, 0e+00]
  RHS range        [0e+00, 0e+00]
Presolve time: 0.00s
Presolve: All rows and columns removed
Iteration    Objective       Primal Inf.    Dual Inf.      Time
       0    0.0000000e+00   0.000000e+00   0.000000e+00      0s

Solved in 0 iterations and 0.00 seconds (0.00 work units)
Optimal objective  0.000000000e+00
Set parameter TimeLimit to value 600
Set parameter MIPGap to value 1e-06
Set parameter Threads to value 1
Warning: model has pending changes.
Derived model does not contain these changes.
Gurobi Optimizer version 9.5.2 build v9.5.2rc0 (linux64)
Thread count: 4 physical cores, 8 logical processors, using up to 1 threads
Optimize a model with 0 rows, 0 columns and 0 nonzeros
Model fingerprint: 0xf9715da1
Coefficient statistics:
  Matrix range     [0e+00, 0e+00]
  Objective range  [0e+00, 0e+00]
  Bounds range     [0e+00, 0e+00]
  RHS range        [0e+00, 0e+00]
Presolve time: 0.00s
Presolve: All rows and columns removed
Iteration    Objective       Primal Inf.    Dual Inf.      Time
       0    0.0000000e+00   0.000000e+00   0.000000e+00      0s

Solved in 0 iterations and 0.00 seconds (0.00 work units)
Optimal objective  0.000000000e+00
Set parameter TimeLimit to value 600
Set parameter MIPGap to value 1e-06
Set parameter Threads to value 1
Warning: model has pending changes.
Derived model does not contain these changes.
Gurobi Optimizer version 9.5.2 build v9.5.2rc0 (linux64)
Thread count: 4 physical cores, 8 logical processors, using up to 1 threads
Optimize a model with 0 rows, 0 columns and 0 nonzeros
Model fingerprint: 0xf9715da1
Coefficient statistics:
  Matrix range     [0e+00, 0e+00]
  Objective range  [0e+00, 0e+00]
  Bounds range     [0e+00, 0e+00]
  RHS range        [0e+00, 0e+00]
Presolve time: 0.00s
Presolve: All rows and columns removed
Iteration    Objective       Primal Inf.    Dual Inf.      Time
       0    0.0000000e+00   0.000000e+00   0.000000e+00      0s

Solved in 0 iterations and 0.00 seconds (0.00 work units)
Optimal objective  0.000000000e+00
Set parameter TimeLimit to value 600
Set parameter MIPGap to value 1e-06
Set parameter Threads to value 1
Warning: model has pending changes.
Derived model does not contain these changes.
Gurobi Optimizer version 9.5.2 build v9.5.2rc0 (linux64)
Thread count: 4 physical cores, 8 logical processors, using up to 1 threads
Optimize a model with 0 rows, 0 columns and 0 nonzeros
Model fingerprint: 0xf9715da1
Coefficient statistics:
  Matrix range     [0e+00, 0e+00]
  Objective range  [0e+00, 0e+00]
  Bounds range     [0e+00, 0e+00]
  RHS range        [0e+00, 0e+00]
Presolve time: 0.00s
Presolve: All rows and columns removed
Iteration    Objective       Primal Inf.    Dual Inf.      Time
       0    0.0000000e+00   0.000000e+00   0.000000e+00      0s

Solved in 0 iterations and 0.00 seconds (0.00 work units)
Optimal objective  0.000000000e+00
Set parameter Username
Academic license - for non-commercial use only - expires 2023-12-01
Set parameter TimeLimit to value 600
Set parameter MIPGap to value 1e-06
Set parameter Threads to value 1
Gurobi Optimizer version 9.5.2 build v9.5.2rc0 (linux64)
Thread count: 4 physical cores, 8 logical processors, using up to 1 threads
Optimize a model with 773 rows, 34 columns and 2317 nonzeros
Model fingerprint: 0xbb73d47c
Coefficient statistics:
  Matrix range     [1e+00, 1e+00]
  Objective range  [1e+00, 1e+00]
  Bounds range     [1e+00, 1e+00]
  RHS range        [1e+00, 1e+00]
Presolve removed 57 rows and 1 columns
Presolve time: 0.00s
Presolved: 716 rows, 33 columns, 1908 nonzeros

Iteration    Objective       Primal Inf.    Dual Inf.      Time
       0    1.0000000e+00   2.400000e+02   0.000000e+00      0s
      66    1.6250000e+01   0.000000e+00   0.000000e+00      0s

Solved in 66 iterations and 0.01 seconds (0.00 work units)
Optimal objective  1.625000000e+01
Set parameter TimeLimit to value 600
Set parameter MIPGap to value 1e-06
Set parameter Threads to value 1
Gurobi Optimizer version 9.5.2 build v9.5.2rc0 (linux64)
Thread count: 4 physical cores, 8 logical processors, using up to 1 threads
Optimize a model with 773 rows, 34 columns and 2317 nonzeros
Model fingerprint: 0x6b1b12f0
Coefficient statistics:
  Matrix range     [1e+00, 1e+00]
  Objective range  [1e+00, 1e+00]
  Bounds range     [1e+00, 1e+00]
  RHS range        [1e+00, 1e+00]
Presolve removed 55 rows and 1 columns
Presolve time: 0.00s
Presolved: 718 rows, 33 columns, 2110 nonzeros

Iteration    Objective       Primal Inf.    Dual Inf.      Time
       0    1.0000000e+00   4.400000e+01   0.000000e+00      0s
      50    1.1000000e+01   0.000000e+00   0.000000e+00      0s

Solved in 50 iterations and 0.00 seconds (0.00 work units)
Optimal objective  1.100000000e+01
Set parameter TimeLimit to value 600
Set parameter MIPGap to value 1e-06
Set parameter Threads to value 1
Gurobi Optimizer version 9.5.2 build v9.5.2rc0 (linux64)
Thread count: 4 physical cores, 8 logical processors, using up to 1 threads
Optimize a model with 773 rows, 34 columns and 2317 nonzeros
Model fingerprint: 0x19bf3a2c
Coefficient statistics:
  Matrix range     [1e+00, 1e+00]
  Objective range  [1e+00, 1e+00]
  Bounds range     [1e+00, 1e+00]
  RHS range        [1e+00, 1e+00]
Presolve removed 46 rows and 1 columns
Presolve time: 0.00s
Presolved: 727 rows, 33 columns, 2105 nonzeros

Iteration    Objective       Primal Inf.    Dual Inf.      Time
       0    1.0000000e+00   7.600000e+01   0.000000e+00      0s
      46    1.4250000e+01   0.000000e+00   0.000000e+00      0s

Solved in 46 iterations and 0.00 seconds (0.00 work units)
Optimal objective  1.425000000e+01
Set parameter TimeLimit to value 600
Set parameter MIPGap to value 1e-06
Set parameter Threads to value 1
Gurobi Optimizer version 9.5.2 build v9.5.2rc0 (linux64)
Thread count: 4 physical cores, 8 logical processors, using up to 1 threads
Optimize a model with 773 rows, 34 columns and 2317 nonzeros
Model fingerprint: 0xca3873ac
Coefficient statistics:
  Matrix range     [1e+00, 1e+00]
  Objective range  [1e+00, 1e+00]
  Bounds range     [1e+00, 1e+00]
  RHS range        [1e+00, 1e+00]
Presolve removed 40 rows and 1 columns
Presolve time: 0.00s
Presolved: 733 rows, 33 columns, 2179 nonzeros

Iteration    Objective       Primal Inf.    Dual Inf.      Time
       0    1.0000000e+00   2.000000e+01   0.000000e+00      0s
       2    3.0000000e+00   0.000000e+00   0.000000e+00      0s

Solved in 2 iterations and 0.00 seconds (0.00 work units)
Optimal objective  3.000000000e+00
Set parameter TimeLimit to value 600
Set parameter MIPGap to value 1e-06
Set parameter Threads to value 1
Gurobi Optimizer version 9.5.2 build v9.5.2rc0 (linux64)
Thread count: 4 physical cores, 8 logical processors, using up to 1 threads
Optimize a model with 773 rows, 34 columns and 2317 nonzeros
Model fingerprint: 0x62931b74
Coefficient statistics:
  Matrix range     [1e+00, 1e+00]
  Objective range  [1e+00, 1e+00]
  Bounds range     [1e+00, 1e+00]
  RHS range        [1e+00, 1e+00]
Presolve removed 33 rows and 1 columns
Presolve time: 0.00s
Presolved: 740 rows, 33 columns, 2219 nonzeros

Iteration    Objective       Primal Inf.    Dual Inf.      Time
       0    1.0000000e+00   1.000000e+00   0.000000e+00      0s
       1    2.0000000e+00   0.000000e+00   0.000000e+00      0s

Solved in 1 iterations and 0.00 seconds (0.00 work units)
Optimal objective  2.000000000e+00
Set parameter TimeLimit to value 600
Set parameter MIPGap to value 1e-06
Set parameter Threads to value 1
Gurobi Optimizer version 9.5.2 build v9.5.2rc0 (linux64)
Thread count: 4 physical cores, 8 logical processors, using up to 1 threads
Optimize a model with 773 rows, 34 columns and 2317 nonzeros
Model fingerprint: 0xab6038f9
Coefficient statistics:
  Matrix range     [1e+00, 1e+00]
  Objective range  [1e+00, 1e+00]
  Bounds range     [1e+00, 1e+00]
  RHS range        [1e+00, 1e+00]
Presolve removed 32 rows and 1 columns
Presolve time: 0.00s
Presolved: 741 rows, 33 columns, 2203 nonzeros

Iteration    Objective       Primal Inf.    Dual Inf.      Time
       0    1.0000000e+00   2.000000e+01   0.000000e+00      0s
       2    3.0000000e+00   0.000000e+00   0.000000e+00      0s

Solved in 2 iterations and 0.00 seconds (0.00 work units)
Optimal objective  3.000000000e+00
Set parameter TimeLimit to value 600
Set parameter MIPGap to value 1e-06
Set parameter Threads to value 1
Gurobi Optimizer version 9.5.2 build v9.5.2rc0 (linux64)
Thread count: 4 physical cores, 8 logical processors, using up to 1 threads
Optimize a model with 773 rows, 34 columns and 2317 nonzeros
Model fingerprint: 0x1a3334e0
Coefficient statistics:
  Matrix range     [1e+00, 1e+00]
  Objective range  [1e+00, 1e+00]
  Bounds range     [1e+00, 1e+00]
  RHS range        [1e+00, 1e+00]
Presolve removed 32 rows and 1 columns
Presolve time: 0.00s
Presolved: 741 rows, 33 columns, 2203 nonzeros

Iteration    Objective       Primal Inf.    Dual Inf.      Time
       0    1.0000000e+00   2.000000e+01   0.000000e+00      0s
       2    3.0000000e+00   0.000000e+00   0.000000e+00      0s

Solved in 2 iterations and 0.00 seconds (0.00 work units)
Optimal objective  3.000000000e+00
Set parameter TimeLimit to value 600
Set parameter MIPGap to value 1e-06
Set parameter Threads to value 1
Gurobi Optimizer version 9.5.2 build v9.5.2rc0 (linux64)
Thread count: 4 physical cores, 8 logical processors, using up to 1 threads
Optimize a model with 773 rows, 34 columns and 2317 nonzeros
Model fingerprint: 0x09dbbce5
Coefficient statistics:
  Matrix range     [1e+00, 1e+00]
  Objective range  [1e+00, 1e+00]
  Bounds range     [1e+00, 1e+00]
  RHS range        [1e+00, 1e+00]
Presolve removed 53 rows and 1 columns
Presolve time: 0.00s
Presolved: 720 rows, 33 columns, 2146 nonzeros

Iteration    Objective       Primal Inf.    Dual Inf.      Time
       0    1.0000000e+00   1.400000e+01   0.000000e+00      0s
      47    1.2500000e+01   0.000000e+00   0.000000e+00      0s

Solved in 47 iterations and 0.00 seconds (0.00 work units)
Optimal objective  1.250000000e+01
Set parameter TimeLimit to value 600
Set parameter MIPGap to value 1e-06
Set parameter Threads to value 1
Gurobi Optimizer version 9.5.2 build v9.5.2rc0 (linux64)
Thread count: 4 physical cores, 8 logical processors, using up to 1 threads
Optimize a model with 773 rows, 34 columns and 2317 nonzeros
Model fingerprint: 0x4ea900a3
Coefficient statistics:
  Matrix range     [1e+00, 1e+00]
  Objective range  [1e+00, 1e+00]
  Bounds range     [1e+00, 1e+00]
  RHS range        [1e+00, 1e+00]
Presolve removed 38 rows and 1 columns
Presolve time: 0.00s
Presolved: 735 rows, 33 columns, 2203 nonzeros

Iteration    Objective       Primal Inf.    Dual Inf.      Time
       0    1.0000000e+00   2.000000e+00   0.000000e+00      0s
      45    9.2500000e+00   0.000000e+00   0.000000e+00      0s

Solved in 45 iterations and 0.00 seconds (0.00 work units)
Optimal objective  9.250000000e+00
Set parameter TimeLimit to value 600
Set parameter MIPGap to value 1e-06
Set parameter Threads to value 1
Gurobi Optimizer version 9.5.2 build v9.5.2rc0 (linux64)
Thread count: 4 physical cores, 8 logical processors, using up to 1 threads
Optimize a model with 773 rows, 34 columns and 2317 nonzeros
Model fingerprint: 0xaa3b7f41
Coefficient statistics:
  Matrix range     [1e+00, 1e+00]
  Objective range  [1e+00, 1e+00]
  Bounds range     [1e+00, 1e+00]
  RHS range        [1e+00, 1e+00]
Presolve removed 33 rows and 1 columns
Presolve time: 0.00s
Presolved: 740 rows, 33 columns, 2219 nonzeros

Iteration    Objective       Primal Inf.    Dual Inf.      Time
       0    1.0000000e+00   1.000000e+00   0.000000e+00      0s
       1    2.0000000e+00   0.000000e+00   0.000000e+00      0s

Solved in 1 iterations and 0.00 seconds (0.00 work units)
Optimal objective  2.000000000e+00
Set parameter TimeLimit to value 600
Set parameter MIPGap to value 1e-06
Set parameter Threads to value 1
Gurobi Optimizer version 9.5.2 build v9.5.2rc0 (linux64)
Thread count: 4 physical cores, 8 logical processors, using up to 1 threads
Optimize a model with 773 rows, 34 columns and 2317 nonzeros
Model fingerprint: 0x830b3f6e
Coefficient statistics:
  Matrix range     [1e+00, 1e+00]
  Objective range  [1e+00, 1e+00]
  Bounds range     [1e+00, 1e+00]
  RHS range        [1e+00, 1e+00]
Presolve removed 48 rows and 1 columns
Presolve time: 0.00s
Presolved: 725 rows, 33 columns, 2146 nonzeros

Iteration    Objective       Primal Inf.    Dual Inf.      Time
       0    1.0000000e+00   2.900000e+01   0.000000e+00      0s
      44    1.2500000e+01   0.000000e+00   0.000000e+00      0s

Solved in 44 iterations and 0.00 seconds (0.00 work units)
Optimal objective  1.250000000e+01
Set parameter TimeLimit to value 600
Set parameter MIPGap to value 1e-06
Set parameter Threads to value 1
Gurobi Optimizer version 9.5.2 build v9.5.2rc0 (linux64)
Thread count: 4 physical cores, 8 logical processors, using up to 1 threads
Optimize a model with 773 rows, 34 columns and 2317 nonzeros
Model fingerprint: 0x7843106d
Coefficient statistics:
  Matrix range     [1e+00, 1e+00]
  Objective range  [1e+00, 1e+00]
  Bounds range     [1e+00, 1e+00]
  RHS range        [1e+00, 1e+00]
Presolve removed 44 rows and 1 columns
Presolve time: 0.00s
Presolved: 729 rows, 33 columns, 2169 nonzeros

Iteration    Objective       Primal Inf.    Dual Inf.      Time
       0    1.0000000e+00   1.800000e+01   0.000000e+00      0s
      40    1.2000000e+01   0.000000e+00   0.000000e+00      0s

Solved in 40 iterations and 0.00 seconds (0.00 work units)
Optimal objective  1.200000000e+01
Set parameter TimeLimit to value 600
Set parameter MIPGap to value 1e-06
Set parameter Threads to value 1
Gurobi Optimizer version 9.5.2 build v9.5.2rc0 (linux64)
Thread count: 4 physical cores, 8 logical processors, using up to 1 threads
Optimize a model with 773 rows, 34 columns and 2317 nonzeros
Model fingerprint: 0x477c7596
Coefficient statistics:
  Matrix range     [1e+00, 1e+00]
  Objective range  [1e+00, 1e+00]
  Bounds range     [1e+00, 1e+00]
  RHS range        [1e+00, 1e+00]
Presolve removed 53 rows and 1 columns
Presolve time: 0.00s
Presolved: 720 rows, 33 columns, 2152 nonzeros

Iteration    Objective       Primal Inf.    Dual Inf.      Time
       0    1.0000000e+00   8.000000e+00   0.000000e+00      0s
      38    7.6000000e+00   0.000000e+00   0.000000e+00      0s

Solved in 38 iterations and 0.00 seconds (0.00 work units)
Optimal objective  7.600000000e+00
Set parameter TimeLimit to value 600
Set parameter MIPGap to value 1e-06
Set parameter Threads to value 1
Gurobi Optimizer version 9.5.2 build v9.5.2rc0 (linux64)
Thread count: 4 physical cores, 8 logical processors, using up to 1 threads
Optimize a model with 773 rows, 34 columns and 2317 nonzeros
Model fingerprint: 0xc7da9b48
Coefficient statistics:
  Matrix range     [1e+00, 1e+00]
  Objective range  [1e+00, 1e+00]
  Bounds range     [1e+00, 1e+00]
  RHS range        [1e+00, 1e+00]
Presolve removed 53 rows and 1 columns
Presolve time: 0.00s
Presolved: 720 rows, 33 columns, 2158 nonzeros

Iteration    Objective       Primal Inf.    Dual Inf.      Time
       0    1.0000000e+00   2.000000e+00   0.000000e+00      0s
      55    7.4545455e+00   0.000000e+00   0.000000e+00      0s

Solved in 55 iterations and 0.00 seconds (0.00 work units)
Optimal objective  7.454545455e+00
Set parameter TimeLimit to value 600
Set parameter MIPGap to value 1e-06
Set parameter Threads to value 1
Gurobi Optimizer version 9.5.2 build v9.5.2rc0 (linux64)
Thread count: 4 physical cores, 8 logical processors, using up to 1 threads
Optimize a model with 773 rows, 34 columns and 2317 nonzeros
Model fingerprint: 0x2115058b
Coefficient statistics:
  Matrix range     [1e+00, 1e+00]
  Objective range  [1e+00, 1e+00]
  Bounds range     [1e+00, 1e+00]
  RHS range        [1e+00, 1e+00]
Presolve removed 49 rows and 1 columns
Presolve time: 0.00s
Presolved: 724 rows, 33 columns, 2169 nonzeros

Iteration    Objective       Primal Inf.    Dual Inf.      Time
       0    1.0000000e+00   3.000000e+00   0.000000e+00      0s
      47    6.8571429e+00   0.000000e+00   0.000000e+00      0s

Solved in 47 iterations and 0.00 seconds (0.00 work units)
Optimal objective  6.857142857e+00
Set parameter TimeLimit to value 600
Set parameter MIPGap to value 1e-06
Set parameter Threads to value 1
Gurobi Optimizer version 9.5.2 build v9.5.2rc0 (linux64)
Thread count: 4 physical cores, 8 logical processors, using up to 1 threads
Optimize a model with 773 rows, 34 columns and 2317 nonzeros
Model fingerprint: 0xe1e5d760
Coefficient statistics:
  Matrix range     [1e+00, 1e+00]
  Objective range  [1e+00, 1e+00]
  Bounds range     [1e+00, 1e+00]
  RHS range        [1e+00, 1e+00]
Presolve removed 43 rows and 1 columns
Presolve time: 0.00s
Presolved: 730 rows, 33 columns, 2180 nonzeros

Iteration    Objective       Primal Inf.    Dual Inf.      Time
       0    1.0000000e+00   1.000000e+01   0.000000e+00      0s
      55    1.0333333e+01   0.000000e+00   0.000000e+00      0s

Solved in 55 iterations and 0.00 seconds (0.00 work units)
Optimal objective  1.033333333e+01
Set parameter TimeLimit to value 600
Set parameter MIPGap to value 1e-06
Set parameter Threads to value 1
Gurobi Optimizer version 9.5.2 build v9.5.2rc0 (linux64)
Thread count: 4 physical cores, 8 logical processors, using up to 1 threads
Optimize a model with 773 rows, 34 columns and 2317 nonzeros
Model fingerprint: 0xf7ee1d9e
Coefficient statistics:
  Matrix range     [1e+00, 1e+00]
  Objective range  [1e+00, 1e+00]
  Bounds range     [1e+00, 1e+00]
  RHS range        [1e+00, 1e+00]
Presolve removed 42 rows and 1 columns
Presolve time: 0.00s
Presolved: 731 rows, 33 columns, 2189 nonzeros

Iteration    Objective       Primal Inf.    Dual Inf.      Time
       0    1.0000000e+00   4.000000e+00   0.000000e+00      0s
      51    9.8750000e+00   0.000000e+00   0.000000e+00      0s

Solved in 51 iterations and 0.00 seconds (0.00 work units)
Optimal objective  9.875000000e+00
Set parameter TimeLimit to value 600
Set parameter MIPGap to value 1e-06
Set parameter Threads to value 1
Gurobi Optimizer version 9.5.2 build v9.5.2rc0 (linux64)
Thread count: 4 physical cores, 8 logical processors, using up to 1 threads
Optimize a model with 773 rows, 34 columns and 2317 nonzeros
Model fingerprint: 0x25304988
Coefficient statistics:
  Matrix range     [1e+00, 1e+00]
  Objective range  [1e+00, 1e+00]
  Bounds range     [1e+00, 1e+00]
  RHS range        [1e+00, 1e+00]
Presolve removed 53 rows and 1 columns
Presolve time: 0.00s
Presolved: 720 rows, 33 columns, 2158 nonzeros

Iteration    Objective       Primal Inf.    Dual Inf.      Time
       0    1.0000000e+00   2.000000e+00   0.000000e+00      0s
       1    2.0000000e+00   0.000000e+00   0.000000e+00      0s

Solved in 1 iterations and 0.00 seconds (0.00 work units)
Optimal objective  2.000000000e+00
Set parameter TimeLimit to value 600
Set parameter MIPGap to value 1e-06
Set parameter Threads to value 1
Gurobi Optimizer version 9.5.2 build v9.5.2rc0 (linux64)
Thread count: 4 physical cores, 8 logical processors, using up to 1 threads
Optimize a model with 773 rows, 34 columns and 2317 nonzeros
Model fingerprint: 0xf38c3c21
Coefficient statistics:
  Matrix range     [1e+00, 1e+00]
  Objective range  [1e+00, 1e+00]
  Bounds range     [1e+00, 1e+00]
  RHS range        [1e+00, 1e+00]
Presolve removed 47 rows and 1 columns
Presolve time: 0.00s
Presolved: 726 rows, 33 columns, 2167 nonzeros

Iteration    Objective       Primal Inf.    Dual Inf.      Time
       0    1.0000000e+00   1.100000e+01   0.000000e+00      0s
      34    8.6666667e+00   0.000000e+00   0.000000e+00      0s

Solved in 34 iterations and 0.00 seconds (0.00 work units)
Optimal objective  8.666666667e+00
Set parameter TimeLimit to value 600
Set parameter MIPGap to value 1e-06
Set parameter Threads to value 1
Gurobi Optimizer version 9.5.2 build v9.5.2rc0 (linux64)
Thread count: 4 physical cores, 8 logical processors, using up to 1 threads
Optimize a model with 773 rows, 34 columns and 2317 nonzeros
Model fingerprint: 0x6a3e6a44
Coefficient statistics:
  Matrix range     [1e+00, 1e+00]
  Objective range  [1e+00, 1e+00]
  Bounds range     [1e+00, 1e+00]
  RHS range        [1e+00, 1e+00]
Presolve removed 45 rows and 1 columns
Presolve time: 0.00s
Presolved: 728 rows, 33 columns, 2159 nonzeros

Iteration    Objective       Primal Inf.    Dual Inf.      Time
       0    1.0000000e+00   2.500000e+01   0.000000e+00      0s
      42    1.3000000e+01   0.000000e+00   0.000000e+00      0s

Solved in 42 iterations and 0.00 seconds (0.00 work units)
Optimal objective  1.300000000e+01
Set parameter TimeLimit to value 600
Set parameter MIPGap to value 1e-06
Set parameter Threads to value 1
Gurobi Optimizer version 9.5.2 build v9.5.2rc0 (linux64)
Thread count: 4 physical cores, 8 logical processors, using up to 1 threads
Optimize a model with 773 rows, 34 columns and 2317 nonzeros
Model fingerprint: 0x14d1e031
Coefficient statistics:
  Matrix range     [1e+00, 1e+00]
  Objective range  [1e+00, 1e+00]
  Bounds range     [1e+00, 1e+00]
  RHS range        [1e+00, 1e+00]
Presolve removed 37 rows and 1 columns
Presolve time: 0.00s
Presolved: 736 rows, 33 columns, 2133 nonzeros

Iteration    Objective       Primal Inf.    Dual Inf.      Time
       0    1.0000000e+00   7.500000e+01   0.000000e+00      0s
      38    1.2000000e+01   0.000000e+00   0.000000e+00      0s

Solved in 38 iterations and 0.00 seconds (0.00 work units)
Optimal objective  1.200000000e+01
Set parameter TimeLimit to value 600
Set parameter MIPGap to value 1e-06
Set parameter Threads to value 1
Gurobi Optimizer version 9.5.2 build v9.5.2rc0 (linux64)
Thread count: 4 physical cores, 8 logical processors, using up to 1 threads
Optimize a model with 773 rows, 34 columns and 2317 nonzeros
Model fingerprint: 0x7abea455
Coefficient statistics:
  Matrix range     [1e+00, 1e+00]
  Objective range  [1e+00, 1e+00]
  Bounds range     [1e+00, 1e+00]
  RHS range        [1e+00, 1e+00]
Presolve removed 36 rows and 1 columns
Presolve time: 0.00s
Presolved: 737 rows, 33 columns, 2064 nonzeros

Iteration    Objective       Primal Inf.    Dual Inf.      Time
       0    1.0000000e+00   1.470000e+02   0.000000e+00      0s
      25    1.2000000e+01   0.000000e+00   0.000000e+00      0s

Solved in 25 iterations and 0.00 seconds (0.00 work units)
Optimal objective  1.200000000e+01
